(define-fun flag_17_visible () Bool true)
(declare-const flag_17 Bool)
(define-fun x_64_visible () Bool (and true flag_17))
(declare-const x_64 Real)
(define-fun y_92_visible () Bool true)
(define-fun y_92 () Real x_64)
(define-fun u_156_visible () Bool (and true (and true false)))
(declare-const u_156 Real)
(define-fun n_191_visible () Bool true)
(declare-const n_191 Real)
(define-fun z_242_visible () Bool (and true (> n_191 0.0)))
(define-fun z_242 () Real (+ n_191 10.0))
(define-fun z_305_visible () Bool (and true (< n_191 0.0)))
(define-fun z_305 () Real (* 2.0 n_191))
(push)
(assert (not (xor z_305_visible z_242_visible)))
(check-sat)
(pop)
(push)
(assert flag_17_visible)
(check-sat)
(pop)
(push)
(assert x_64_visible)
(check-sat)
(pop)
(push)
(assert y_92_visible)
(check-sat)
(pop)
(push)
(assert u_156_visible)
(check-sat)
(pop)
(push)
(assert n_191_visible)
(check-sat)
(pop)
(push)
(assert z_242_visible)
(check-sat)
(pop)
(push)
(assert z_305_visible)
(check-sat)
(pop)
(push)
(assert (not (=> y_92_visible x_64_visible)))
(check-sat)
(pop)
(push)
(assert (not (=> z_242_visible n_191_visible)))
(check-sat)
(pop)
(push)
(assert (not (=> z_305_visible n_191_visible)))
(check-sat)
(pop)